NAME: Taillard-75B
BEST_KNOWN: 1344.64
COMMENT: 1344.640000
DIMENSION: 76
CAPACITY: 1679
EDGE_WEIGHT_FORMAT: FUNCTION
EDGE_WEIGHT_TYPE: EXACT_2D
NODE_COORD_SECTION
1 0.00000 0.00000
2 -2.00000 -5.00000
3 3.00000 -1.00000
4 -2.00000 7.00000
5 3.00000 0.00000
6 7.00000 -3.00000
7 -5.00000 -1.00000
8 -3.00000 0.00000
9 0.00000 -3.00000
10 4.00000 1.00000
11 4.00000 -5.00000
12 -2.00000 -4.00000
13 5.00000 -5.00000
14 -4.00000 1.00000
15 -2.00000 3.00000
16 7.00000 2.00000
17 -13.00000 80.00000
18 -6.00000 88.00000
19 -16.00000 83.00000
20 -14.00000 77.00000
21 -26.00000 88.00000
22 -24.00000 79.00000
23 -25.00000 78.00000
24 -11.00000 80.00000
25 -5.00000 88.00000
26 -21.00000 90.00000
27 -5.00000 82.00000
28 -20.00000 80.00000
29 -6.00000 91.00000
30 -25.00000 89.00000
31 -25.00000 74.00000
32 -8.00000 88.00000
33 -21.00000 74.00000
34 -23.00000 74.00000
35 -5.00000 87.00000
36 -8.00000 91.00000
37 -3.00000 -8.00000
38 -30.00000 15.00000
39 -14.00000 24.00000
40 -12.00000 11.00000
41 -1.00000 7.00000
42 2.00000 14.00000
43 -26.00000 15.00000
44 -36.00000 2.00000
45 -29.00000 7.00000
46 -1.00000 28.00000
47 -7.00000 17.00000
48 -10.00000 31.00000
49 -20.00000 -2.00000
50 -33.00000 20.00000
51 -26.00000 0.00000
52 -13.00000 9.00000
53 -8.00000 12.00000
54 -35.00000 -8.00000
55 -33.00000 23.00000
56 10.00000 -70.00000
57 8.00000 -95.00000
58 -12.00000 -101.00000
59 6.00000 -113.00000
60 -17.00000 -76.00000
61 -23.00000 -102.00000
62 11.00000 -104.00000
63 -19.00000 -96.00000
64 -13.00000 -79.00000
65 -53.00000 -32.00000
66 -78.00000 -2.00000
67 -87.00000 -61.00000
68 -60.00000 -32.00000
69 -6.00000 -12.00000
70 10.00000 -16.00000
71 -7.00000 -11.00000
72 0.00000 3.00000
73 10.00000 2.00000
74 -1.00000 -15.00000
75 1.00000 -3.00000
76 15.00000 -2.00000
DEMAND_SECTION
1 0
2 1066
3 841
4 74
5 687
6 175
7 183
8 124
9 4
10 81
11 56
12 29
13 23
14 4
15 9
16 7
17 181
18 54
19 884
20 822
21 637
22 59
23 140
24 531
25 58
26 15
27 11
28 185
29 159
30 285
31 4
32 10
33 3
34 4
35 11
36 45
37 4
38 225
39 286
40 262
41 4
42 391
43 54
44 518
45 815
46 25
47 29
48 18
49 588
50 68
51 480
52 5
53 16
54 34
55 5
56 9
57 22
58 120
59 152
60 21
61 44
62 676
63 17
64 764
65 13
66 6
67 718
68 52
69 11
70 93
71 398
72 48
73 37
74 3
75 8
76 406
DEPOT_SECTION
1
-1
EOF
